
Gurobi 6.5.2 (linux64) logging started Tue Sep 20 21:16:18 2016


Gurobi 6.5.2 (linux64) logging started Tue Sep 20 21:16:18 2016

Optimize a model with 41 rows, 77 columns and 181 nonzeros
Coefficient statistics:
  Matrix range    [1e+00, 2e+00]
  Objective range [1e+00, 1e+02]
  Bounds range    [1e+00, 1e+00]
  RHS range       [1e+00, 1e+00]
Presolve removed 16 rows and 11 columns
Presolve time: 0.00s
Presolved: 25 rows, 66 columns, 140 nonzeros
Variable types: 0 continuous, 66 integer (66 binary)
Found heuristic solution: objective 784.0000000

Root relaxation: objective 4.997500e+02, 27 iterations, 0.00 seconds

    Nodes    |    Current Node    |     Objective Bounds      |     Work
 Expl Unexpl |  Obj  Depth IntInf | Incumbent    BestBd   Gap | It/Node Time

     0     0  499.75000    0   14  784.00000  499.75000  36.3%     -    0s
H    0     0                     745.0000000  499.75000  32.9%     -    0s
H    0     0                     560.0000000  499.75000  10.8%     -    0s
     0     0  531.40000    0   12  560.00000  531.40000  5.11%     -    0s
     0     0  532.75000    0   16  560.00000  532.75000  4.87%     -    0s
     0     0  533.00000    0   16  560.00000  533.00000  4.82%     -    0s
     0     0  533.00000    0   16  560.00000  533.00000  4.82%     -    0s
     0     0  533.00000    0    4  560.00000  533.00000  4.82%     -    0s
     0     0  533.00000    0   20  560.00000  533.00000  4.82%     -    0s
     0     0  533.25000    0   18  560.00000  533.25000  4.78%     -    0s
*    0     0               0     535.0000000  535.00000  0.00%     -    0s

Cutting planes:
  Gomory: 5
  Cover: 8
  MIR: 1
  Mod-K: 1

Explored 0 nodes (90 simplex iterations) in 0.01 seconds
Thread count was 8 (of 8 available processors)

Optimal solution found (tolerance 1.00e-04)
Best objective 5.350000000000e+02, best bound 5.350000000000e+02, gap 0.0%
